p cnf 140 500
5 3 0
5 4 0
-3 -4 -5 0
-2 5 -6 0
2 -5 -6 0
-2 -5 6 0
2 5 6 0
7 1 0
7 -6 0
-1 6 -7 0
-9 8 0
-9 -4 0
-8 4 9 0
10 9 0
10 -3 0
-9 3 -10 0
11 2 0
11 10 0
-2 -10 -11 0
-12 -13 -14 0
12 13 -14 0
-12 13 14 0
12 -13 14 0
14 15 0
-14 15 0
-16 15 0
-16 -10 0
-15 10 16 0
18 16 0
18 17 0
-16 -17 -18 0
-19 11 0
-19 -18 0
-11 18 19 0
20 19 0
20 1 0
-19 -1 -20 0
22 9 0
22 -21 0
-9 21 -22 0
22 23 -24 0
-22 -23 -24 0
22 -23 24 0
-22 23 24 0
-25 4 0
-25 -24 0
-4 24 25 0
20 25 -26 0
-20 -25 -26 0
20 -25 26 0
-20 25 26 0
3 -5 -27 0
-3 5 -27 0
3 5 27 0
-3 -5 27 0
28 -3 -29 0
-28 3 -29 0
28 3 29 0
-28 -3 29 0
30 29 0
30 -13 0
-29 13 -30 0
-31 27 0
-31 -30 0
-27 30 31 0
32 28 0
32 -4 0
-28 4 -32 0
33 9 0
33 32 0
-9 -32 -33 0
-31 -33 -34 0
31 33 -34 0
-31 33 34 0
31 -33 34 0
26 34 -35 0
-26 -34 -35 0
26 -34 35 0
-26 34 35 0
-36 7 0
-36 35 0
-7 -35 36 0
-32 3 -37 0
32 -3 -37 0
-32 -3 37 0
32 3 37 0
38 -37 0
38 -16 0
37 16 -38 0
39 38 0
39 38 0
-38 -39 0
-40 39 0
-40 38 0
-39 -38 40 0
41 13 -42 0
-41 -13 -42 0
41 -13 42 0
-41 13 42 0
40 -42 -43 0
-40 42 -43 0
40 42 43 0
-40 -42 43 0
-44 17 0
-44 -8 0
-17 8 44 0
45 -10 0
45 -44 0
10 44 -45 0
46 -21 0
46 8 0
21 -8 -46 0
-45 -46 -47 0
45 46 -47 0
-45 46 47 0
45 -46 47 0
48 47 0
48 -6 0
-47 6 -48 0
-43 48 -49 0
43 -48 -49 0
-43 -48 49 0
43 48 49 0
-12 -37 -50 0
12 37 -50 0
-12 37 50 0
12 -37 50 0
51 45 0
51 37 0
-45 -37 -51 0
52 -2 0
52 13 0
2 -13 -52 0
52 5 -53 0
-52 -5 -53 0
52 -5 53 0
-52 5 53 0
10 -53 -54 0
-10 53 -54 0
10 53 54 0
-10 -53 54 0
55 -17 0
55 54 0
17 -54 -55 0
-56 52 0
-56 -55 0
-52 55 56 0
-57 51 0
-57 56 0
-51 -56 57 0
-58 -39 0
-58 -17 0
39 17 58 0
-59 57 0
-59 58 0
-57 -58 59 0
50 -59 -60 0
-50 59 -60 0
50 59 60 0
-50 -59 60 0
-61 -49 0
-61 60 0
49 -60 61 0
11 62 -63 0
-11 -62 -63 0
11 -62 63 0
-11 62 63 0
-64 61 0
-64 -63 0
-61 63 64 0
65 -2 0
65 5 0
2 -5 -65 0
-66 -4 0
-66 65 0
4 -65 66 0
66 6 -67 0
-66 -6 -67 0
66 -6 67 0
-66 6 67 0
-68 67 0
-68 -23 0
-67 23 68 0
-69 -8 0
-69 -2 0
8 2 69 0
-70 45 0
-70 -38 0
-45 38 70 0
-2 70 -71 0
2 -70 -71 0
-2 -70 71 0
2 70 71 0
72 -65 0
72 -21 0
65 21 -72 0
73 72 0
73 46 0
-72 -46 -73 0
73 18 -74 0
-73 -18 -74 0
73 -18 74 0
-73 18 74 0
-75 15 0
-75 -21 0
-15 21 75 0
-76 -74 0
-76 75 0
74 -75 76 0
77 71 0
77 76 0
-71 -76 -77 0
69 77 -78 0
-69 -77 -78 0
69 -77 78 0
-69 77 78 0
68 -78 -79 0
-68 78 -79 0
68 78 79 0
-68 -78 79 0
-52 -72 -80 0
52 72 -80 0
-52 72 80 0
52 -72 80 0
-81 80 0
-81 -65 0
-80 65 81 0
-82 79 0
-82 -81 0
-79 81 82 0
-64 -82 -83 0
64 82 -83 0
-64 82 83 0
64 -82 83 0
84 36 0
84 83 0
-36 -83 -84 0
-85 -5 0
-85 -3 0
5 3 85 0
-28 85 -86 0
28 -85 -86 0
-28 -85 86 0
28 85 86 0
87 17 0
87 66 0
-17 -66 -87 0
88 87 0
88 11 0
-87 -11 -88 0
89 88 0
89 -24 0
-88 24 -89 0
-90 -9 0
-90 55 0
9 -55 90 0
-91 90 0
-91 -1 0
-90 1 91 0
-92 89 0
-92 -91 0
-89 91 92 0
-10 12 -93 0
10 -12 -93 0
-10 -12 93 0
10 12 93 0
-41 -93 -94 0
41 93 -94 0
-41 93 94 0
41 -93 94 0
95 92 0
95 94 0
-92 -94 -95 0
-96 86 0
-96 95 0
-86 -95 96 0
97 6 0
97 16 0
-6 -16 -97 0
-98 19 0
-98 87 0
-19 -87 98 0
-99 97 0
-99 98 0
-97 -98 99 0
-14 28 -100 0
14 -28 -100 0
-14 -28 100 0
14 28 100 0
-101 -47 0
-101 -16 0
47 16 101 0
102 100 0
102 -101 0
-100 101 -102 0
99 -102 -103 0
-99 102 -103 0
99 102 103 0
-99 -102 103 0
104 96 0
104 103 0
-96 -103 -104 0
-105 52 0
-105 -62 0
-52 62 105 0
106 -10 0
106 -45 0
10 45 -106 0
107 29 0
107 -106 0
-29 106 -107 0
-108 -62 0
-108 41 0
62 -41 108 0
109 10 0
109 -108 0
-10 108 -109 0
-110 -62 0
-110 -109 0
62 109 110 0
-111 107 0
-111 110 0
-107 -110 111 0
-112 105 0
-112 111 0
-105 -111 112 0
113 -19 0
113 1 0
19 -1 -113 0
-114 -113 0
-114 -9 0
113 9 114 0
-37 -15 -115 0
37 15 -115 0
-37 15 115 0
37 -15 115 0
-116 114 0
-116 -115 0
-114 115 116 0
-112 116 -117 0
112 -116 -117 0
-112 -116 117 0
112 116 117 0
118 11 0
118 108 0
-11 -108 -118 0
-118 -119 -120 0
118 119 -120 0
-118 119 120 0
118 -119 120 0
121 44 0
121 -54 0
-44 54 -121 0
4 21 -122 0
-4 -21 -122 0
4 -21 122 0
-4 21 122 0
123 122 0
123 72 0
-122 -72 -123 0
124 121 0
124 123 0
-121 -123 -124 0
-28 -32 -125 0
28 32 -125 0
-28 32 125 0
28 -32 125 0
126 -125 0
126 45 0
125 -45 -126 0
-23 -24 -127 0
23 24 -127 0
-23 24 127 0
23 -24 127 0
128 -46 0
128 127 0
46 -127 -128 0
126 128 -129 0
-126 -128 -129 0
126 -128 129 0
-126 128 129 0
-130 124 0
-130 129 0
-124 -129 130 0
-131 -120 0
-131 -130 0
120 130 131 0
-132 -28 0
-132 -27 0
28 27 132 0
133 -62 0
133 -132 0
62 132 -133 0
-134 133 0
-134 -90 0
-133 90 134 0
135 -131 0
135 134 0
131 -134 -135 0
-117 -135 -136 0
117 135 -136 0
-117 135 136 0
117 -135 136 0
-106 -19 -137 0
106 19 -137 0
-106 19 137 0
106 -19 137 0
-138 -136 0
-138 137 0
136 -137 138 0
139 -104 0
139 138 0
104 -138 -139 0
-140 84 0
-140 139 0
-84 -139 140 0
27 96 125 0
-129 -10 -68 94 0
-93 -135 79 -107 -69 0
-67 -140 61 0
-99 -102 0
81 -79 -87 34 2 0
34 135 -129 54 0
30 -6 83 -66 0
-73 -126 -51 124 65 0
63 -102 -57 -30 -3 0
-19 -42 -128 114 29 0
120 -41 -26 -67 -59 -15 0
65 125 91 -134 -135 101 0
-33 -86 -20 -68 0
-80 126 -78 -107 -134 -137 0
-34 61 -78 0
-123 103 53 0
-45 119 0
90 7 5 0
3 18 -39 -27 -46 -130 0
133 8 -66 57 0
21 -57 -67 0
15 -19 -6 25 -134 -102 0
-125 -111 0
140 109 0
-65 110 -66 90 0
-21 -107 4 96 0
-42 -57 0
-90 -135 -23 -132 -66 30 0
135 -98 127 0
115 62 -37 -101 0
55 105 81 -45 110 0
-17 -58 40 -6 0
116 98 63 105 36 0
-93 -51 0
133 140 0
-85 137 105 60 101 0
-88 109 0
39 12 67 132 77 79 0
-52 118 38 101 -125 0
36 -139 123 97 -3 0
-133 -117 -81 -45 -17 0
-35 3 -125 -31 37 -22 0
70 92 125 -82 43 39 0
19 116 120 -69 24 0
75 -140 -37 2 0
134 -131 -55 132 0
65 -139 0
-110 -79 -132 109 58 -41 0
122 -92 37 117 6 0
67 -116 -119 31 -129 137 0
-53 21 16 33 0
87 88 -21 -61 -56 0
-76 -8 120 92 0
42 -44 124 -74 -17 0
37 -40 9 -45 0
-59 -11 -137 93 -87 -57 0
30 101 88 0
-38 75 0
-60 -48 58 0
41 -90 10 -100 97 0
-42 -131 47 0
-16 -83 84 122 11 0
105 -21 -40 -8 0
95 36 0
133 7 -52 0
-124 88 -78 -7 59 0
-39 -80 0
-36 -112 73 0
-33 -32 -64 -62 0
16 25 85 131 101 18 0
-96 125 0
-68 106 -128 60 0
-9 -66 96 -77 0
-89 -9 0
94 -51 29 0
19 -34 13 39 0
48 -2 -29 44 64 0
123 -140 -71 -56 0
-68 -55 0
-90 -48 -2 53 -99 68 0
107 -42 11 -122 -2 0
41 6 130 0
140 0
